1111100 AB
319 344 369 395 410 424 439 453 468 483 498 515 533 562 591 620 649 677 705 733 761 789 817 844 866 887 909 931 954 977 1000 1023 1045 1067 1081 1096 1110 1125 1140 1158 1184 1211 1240 1269 1298 1326 1353 1378 1403 1428 13 38
1111100 BA
354 381 409 435 450 464 479 493 508 523 538 555 572 600 629 658 687 715 743 771 799 827 855 882 904 925 947 969 993 1017 1040 1063 1085 1107 1121 1136 1150 1165 1180 1198 1222 1247 1276 1305 1334 1362 1389 1414 1439 24 49 74
0000011 AB
320 345 371 397 423 452 481 514 548 582 616 650 678 707 736 764 793 822 850 879 902 924 946 975 1004 1032 1061 1090 1118 1146 1173 1200 1226 1252 1277 1302 1326 1351 1377 1402 1428 13 38
0000011 BA
355 380 406 433 461 490 519 552 586 620 654 688 716 745 774 802 831 860 888 917 940 962 984 1013 1042 1070 1099 1128 1156 1184 1211 1238 1264 1288 1312 1337 1361 1386 1412 1437 23 48 73
